
Gurobi 9.5.1 (mac64[arm], Java) logging started Sun Jun  5 21:04:53 2022

Set parameter Username
Set parameter LogFile to value "assignment.log"
Academic license - for non-commercial use only - expires 2023-04-21
Gurobi Optimizer version 9.5.1 build v9.5.1rc2 (mac64[arm])
Thread count: 8 physical cores, 8 logical processors, using up to 8 threads
Optimize a model with 14 rows, 98 columns and 78 nonzeros
Model fingerprint: 0xd038c9b9
Variable types: 0 continuous, 98 integer (98 binary)
Coefficient statistics:
  Matrix range     [1e+00, 1e+00]
  Objective range  [8e+00, 1e+01]
  Bounds range     [1e+00, 1e+00]
  RHS range        [2e+00, 7e+00]
Found heuristic solution: objective 561.0000000
Presolve removed 14 rows and 98 columns
Presolve time: 0.00s
Presolve: All rows and columns removed

Explored 0 nodes (0 simplex iterations) in 0.00 seconds (0.00 work units)
Thread count was 1 (of 8 available processors)

Solution count 2: 543 561 

Optimal solution found (tolerance 1.00e-04)
Best objective 5.430000000000e+02, best bound 5.430000000000e+02, gap 0.0000%
